words_hard_train/1273.qaiger
aag 167 23 0 1 144
2
4
8
10
22
24
36
38
50
52
64
66
78
80
94
104
122
140
158
176
194
302
304
334
6 2 4
12 9 11
14 8 10
16 13 15
18 6 16
20 19 15
26 23 25
28 22 24
30 27 29
32 21 30
34 33 29
40 37 39
42 36 38
44 41 43
46 35 44
48 47 43
54 51 53
56 50 52
58 55 57
60 49 58
62 61 57
68 65 67
70 64 66
72 69 71
74 63 72
76 75 71
82 79 81
84 78 80
86 83 85
88 76 87
90 77 86
92 89 91
96 94 4
98 4 10
100 5 11
102 99 101
106 103 105
108 102 104
110 107 109
112 96 110
114 113 109
116 101 24
118 100 25
120 117 119
124 121 123
126 120 122
128 125 127
130 115 128
132 131 127
134 119 38
136 118 39
138 135 137
142 139 141
144 138 140
146 143 145
148 133 146
150 149 145
152 137 52
154 136 53
156 153 155
160 157 159
162 156 158
164 161 163
166 151 164
168 167 163
170 155 66
172 154 67
174 171 173
178 175 177
180 174 176
182 179 181
184 169 182
186 185 181
188 173 80
190 172 81
192 189 191
196 193 195
198 192 194
200 197 199
202 186 201
204 187 200
206 203 205
208 93 206
210 62 73
212 211 75
214 168 183
216 215 185
218 213 216
220 212 217
222 219 221
224 48 59
226 225 61
228 150 165
230 229 167
232 227 230
234 226 231
236 233 235
238 34 45
240 239 47
242 132 147
244 243 149
246 241 244
248 240 245
250 247 249
252 20 31
254 253 33
256 114 129
258 257 131
260 255 258
262 254 259
264 261 263
266 3 94
268 2 95
270 267 269
272 7 17
274 273 19
276 97 111
278 277 113
280 274 278
282 275 279
284 281 283
286 270 285
288 264 286
290 250 288
292 236 290
294 222 292
296 209 294
298 92 207
300 296 299
306 302 304
308 303 305
310 307 309
312 310 190
314 311 191
316 313 315
318 205 199
320 91 85
322 318 320
324 319 321
326 323 325
328 316 326
330 300 329
332 317 327
334 330 333
i0 1 x2[0]
i1 1 x1[0]
i2 1 x2[1]
i3 1 x1[1]
i4 1 x2[2]
i5 1 x1[2]
i6 1 x2[3]
i7 1 x1[3]
i8 1 x2[4]
i9 1 x1[4]
i10 1 x2[5]
i11 1 x1[5]
i12 1 x2[6]
i13 1 x1[6]
i14 2 y2[0]
i15 2 y2[1]
i16 2 y2[2]
i17 2 y2[3]
i18 2 y2[4]
i19 2 y2[5]
i20 2 y2[6]
i21 1 x2[7]
i22 2 y2[7]
o0 bool[0]
c
simplified
  ==
    add
      unary minus
        1 x1
      2 y2
    add
      1 x1
      1 x2
