words_hard_train/1273.qaiger.qdimacs
p cnf 167 433
a 32 1 2 33 4 5 39 40 11 12 18 19 151 25 26 0
e 3 6 7 8 9 10 13 14 15 16 17 20 21 22 23 24 27 28 29 30 31 34 35 36 37 38 41 42 43 44 45 46 47 48 49 50 51 52 53 54 55 56 57 58 59 60 61 62 63 64 65 66 67 68 69 70 71 72 73 74 75 76 77 78 79 80 81 82 83 84 85 86 87 88 89 90 91 92 93 94 95 96 97 98 99 100 101 102 103 104 105 106 107 108 109 110 111 112 113 114 115 116 117 118 119 120 121 122 123 124 125 126 127 128 129 130 131 132 133 134 135 136 137 138 139 140 141 142 143 144 145 146 147 148 149 150 152 153 154 155 156 157 158 159 160 161 162 163 164 165 166 167 0
-1 -2 3 0
1 -3 0
2 -3 0
4 5 6 0
-4 -6 0
-5 -6 0
-4 -5 7 0
4 -7 0
5 -7 0
6 7 8 0
-6 -8 0
-7 -8 0
-3 -8 9 0
3 -9 0
8 -9 0
9 7 10 0
-9 -10 0
-7 -10 0
11 12 13 0
-11 -13 0
-12 -13 0
-11 -12 14 0
11 -14 0
12 -14 0
13 14 15 0
-13 -15 0
-14 -15 0
10 -15 16 0
-10 -16 0
15 -16 0
16 14 17 0
-16 -17 0
-14 -17 0
18 19 20 0
-18 -20 0
-19 -20 0
-18 -19 21 0
18 -21 0
19 -21 0
20 21 22 0
-20 -22 0
-21 -22 0
17 -22 23 0
-17 -23 0
22 -23 0
23 21 24 0
-23 -24 0
-21 -24 0
25 26 27 0
-25 -27 0
-26 -27 0
-25 -26 28 0
25 -28 0
26 -28 0
27 28 29 0
-27 -29 0
-28 -29 0
24 -29 30 0
-24 -30 0
29 -30 0
30 28 31 0
-30 -31 0
-28 -31 0
32 33 34 0
-32 -34 0
-33 -34 0
-32 -33 35 0
32 -35 0
33 -35 0
34 35 36 0
-34 -36 0
-35 -36 0
31 -36 37 0
-31 -37 0
36 -37 0
37 35 38 0
-37 -38 0
-35 -38 0
39 40 41 0
-39 -41 0
-40 -41 0
-39 -40 42 0
39 -42 0
40 -42 0
41 42 43 0
-41 -43 0
-42 -43 0
-38 43 44 0
38 -44 0
-43 -44 0
38 -43 45 0
-38 -45 0
43 -45 0
44 45 46 0
-44 -46 0
-45 -46 0
-47 -2 48 0
47 -48 0
2 -48 0
-2 -5 49 0
2 -49 0
5 -49 0
2 5 50 0
-2 -50 0
-5 -50 0
49 50 51 0
-49 -51 0
-50 -51 0
51 52 53 0
-51 -53 0
-52 -53 0
-51 -52 54 0
51 -54 0
52 -54 0
53 54 55 0
-53 -55 0
-54 -55 0
-48 -55 56 0
48 -56 0
55 -56 0
56 54 57 0
-56 -57 0
-54 -57 0
50 -12 58 0
-50 -58 0
12 -58 0
-50 12 59 0
50 -59 0
-12 -59 0
58 59 60 0
-58 -60 0
-59 -60 0
60 61 62 0
-60 -62 0
-61 -62 0
-60 -61 63 0
60 -63 0
61 -63 0
62 63 64 0
-62 -64 0
-63 -64 0
57 -64 65 0
-57 -65 0
64 -65 0
65 63 66 0
-65 -66 0
-63 -66 0
59 -19 67 0
-59 -67 0
19 -67 0
-59 19 68 0
59 -68 0
-19 -68 0
67 68 69 0
-67 -69 0
-68 -69 0
69 70 71 0
-69 -71 0
-70 -71 0
-69 -70 72 0
69 -72 0
70 -72 0
71 72 73 0
-71 -73 0
-72 -73 0
66 -73 74 0
-66 -74 0
73 -74 0
74 72 75 0
-74 -75 0
-72 -75 0
68 -26 76 0
-68 -76 0
26 -76 0
-68 26 77 0
68 -77 0
-26 -77 0
76 77 78 0
-76 -78 0
-77 -78 0
78 79 80 0
-78 -80 0
-79 -80 0
-78 -79 81 0
78 -81 0
79 -81 0
80 81 82 0
-80 -82 0
-81 -82 0
75 -82 83 0
-75 -83 0
82 -83 0
83 81 84 0
-83 -84 0
-81 -84 0
77 -33 85 0
-77 -85 0
33 -85 0
-77 33 86 0
77 -86 0
-33 -86 0
85 86 87 0
-85 -87 0
-86 -87 0
87 88 89 0
-87 -89 0
-88 -89 0
-87 -88 90 0
87 -90 0
88 -90 0
89 90 91 0
-89 -91 0
-90 -91 0
84 -91 92 0
-84 -92 0
91 -92 0
92 90 93 0
-92 -93 0
-90 -93 0
86 -40 94 0
-86 -94 0
40 -94 0
-86 40 95 0
86 -95 0
-40 -95 0
94 95 96 0
-94 -96 0
-95 -96 0
96 97 98 0
-96 -98 0
-97 -98 0
-96 -97 99 0
96 -99 0
97 -99 0
98 99 100 0
-98 -100 0
-99 -100 0
-93 100 101 0
93 -101 0
-100 -101 0
93 -100 102 0
-93 -102 0
100 -102 0
101 102 103 0
-101 -103 0
-102 -103 0
46 -103 104 0
-46 -104 0
103 -104 0
-31 36 105 0
31 -105 0
-36 -105 0
105 37 106 0
-105 -106 0
-37 -106 0
-84 91 107 0
84 -107 0
-91 -107 0
107 92 108 0
-107 -108 0
-92 -108 0
106 -108 109 0
-106 -109 0
108 -109 0
-106 108 110 0
106 -110 0
-108 -110 0
109 110 111 0
-109 -111 0
-110 -111 0
-24 29 112 0
24 -112 0
-29 -112 0
112 30 113 0
-112 -113 0
-30 -113 0
-75 82 114 0
75 -114 0
-82 -114 0
114 83 115 0
-114 -115 0
-83 -115 0
113 -115 116 0
-113 -116 0
115 -116 0
-113 115 117 0
113 -117 0
-115 -117 0
116 117 118 0
-116 -118 0
-117 -118 0
-17 22 119 0
17 -119 0
-22 -119 0
119 23 120 0
-119 -120 0
-23 -120 0
-66 73 121 0
66 -121 0
-73 -121 0
121 74 122 0
-121 -122 0
-74 -122 0
120 -122 123 0
-120 -123 0
122 -123 0
-120 122 124 0
120 -124 0
-122 -124 0
123 124 125 0
-123 -125 0
-124 -125 0
-10 15 126 0
10 -126 0
-15 -126 0
126 16 127 0
-126 -127 0
-16 -127 0
-57 64 128 0
57 -128 0
-64 -128 0
128 65 129 0
-128 -129 0
-65 -129 0
127 -129 130 0
-127 -130 0
129 -130 0
-127 129 131 0
127 -131 0
-129 -131 0
130 131 132 0
-130 -132 0
-131 -132 0
1 -47 133 0
-1 -133 0
47 -133 0
-1 47 134 0
1 -134 0
-47 -134 0
133 134 135 0
-133 -135 0
-134 -135 0
3 8 136 0
-3 -136 0
-8 -136 0
136 9 137 0
-136 -137 0
-9 -137 0
48 55 138 0
-48 -138 0
-55 -138 0
138 56 139 0
-138 -139 0
-56 -139 0
-137 -139 140 0
137 -140 0
139 -140 0
137 139 141 0
-137 -141 0
-139 -141 0
140 141 142 0
-140 -142 0
-141 -142 0
-135 142 143 0
135 -143 0
-142 -143 0
-132 -143 144 0
132 -144 0
143 -144 0
-125 -144 145 0
125 -145 0
144 -145 0
-118 -145 146 0
118 -146 0
145 -146 0
-111 -146 147 0
111 -147 0
146 -147 0
104 -147 148 0
-104 -148 0
147 -148 0
-46 103 149 0
46 -149 0
-103 -149 0
-148 149 150 0
148 -150 0
-149 -150 0
-151 -152 153 0
151 -153 0
152 -153 0
151 152 154 0
-151 -154 0
-152 -154 0
153 154 155 0
-153 -155 0
-154 -155 0
-155 -95 156 0
155 -156 0
95 -156 0
155 95 157 0
-155 -157 0
-95 -157 0
156 157 158 0
-156 -158 0
-157 -158 0
102 99 159 0
-102 -159 0
-99 -159 0
45 42 160 0
-45 -160 0
-42 -160 0
-159 -160 161 0
159 -161 0
160 -161 0
159 160 162 0
-159 -162 0
-160 -162 0
161 162 163 0
-161 -163 0
-162 -163 0
-158 -163 164 0
158 -164 0
163 -164 0
-150 164 165 0
150 -165 0
-164 -165 0
158 163 166 0
-158 -166 0
-163 -166 0
-165 166 167 0
165 -167 0
-166 -167 0
167 0
